<number of tasks>
100

<cycle time>
1000

<order strength>
0.595


<task times>
1 217
2 163
3 110
4 241
5 31
6 81
7 155
8 134
9 44
10 243
11 203
12 178
13 245
14 271
15 110
16 120
17 140
18 194
19 242
20 111
21 134
22 198
23 77
24 22
25 41
26 104
27 257
28 37
29 29
30 185
31 197
32 58
33 48
34 119
35 110
36 104
37 134
38 99
39 83
40 144
41 285
42 72
43 45
44 106
45 25
46 206
47 78
48 185
49 105
50 142
51 87
52 49
53 101
54 140
55 220
56 109
57 63
58 171
59 148
60 69
61 100
62 225
63 232
64 114
65 124
66 204
67 154
68 287
69 43
70 109
71 189
72 166
73 160
74 115
75 63
76 79
77 231
78 244
79 226
80 95
81 136
82 152
83 116
84 179
85 49
86 90
87 147
88 118
89 127
90 263
91 197
92 148
93 80
94 37
95 74
96 135
97 37
98 190
99 40
100 81

<precedence relations>
1,22
2,22
3,22
4,55
5,14
5,26
5,40
6,8
6,9
6,10
6,11
6,12
6,13
7,9
7,13
7,25
8,88
9,55
10,75
11,17
12,14
12,15
12,16
12,18
12,19
13,15
13,21
14,34
15,22
16,22
17,22
18,75
19,20
19,21
19,23
19,24
19,25
20,34
21,34
22,26
22,27
22,28
22,29
22,30
22,31
22,32
22,33
23,88
24,89
25,45
25,46
25,57
25,78
26,34
27,34
27,35
28,36
28,39
29,37
30,57
31,34
31,35
31,38
32,85
33,40
33,74
34,41
34,42
34,43
34,44
34,45
34,46
35,88
36,55
37,55
38,45
38,76
39,45
40,51
41,55
42,48
42,51
42,52
43,49
43,53
44,47
44,55
45,47
45,54
45,60
45,69
46,50
46,52
47,88
48,55
49,55
50,56
50,83
51,56
51,59
51,60
51,77
52,58
53,57
53,59
54,56
55,62
55,63
55,64
55,65
55,66
56,75
57,75
58,67
58,72
59,61
59,67
59,68
60,91
61,88
62,92
63,72
64,69
64,70
64,71
65,71
65,73
65,92
66,71
66,74
66,92
67,69
67,70
67,71
68,85
69,75
71,88
72,76
74,77
74,78
75,79
75,80
75,81
75,82
76,83
79,85
80,84
81,84
82,84
83,84
84,85
84,86
84,87
85,88
86,88
87,88
87,89
87,90
87,91
87,92
88,93
88,94
88,95
88,96
88,97
88,98
88,99
88,100

<end>
